p tw 130 300
0 1
0 2
1 2
1 8
1 42
2 43
2 44
2 17
2 47
2 30
2 72
2 33
2 76
2 10
2 94
2 18
2 65
2 112
2 113
2 106
2 121
2 74
2 129
3 4
3 5
3 8
3 128
4 5
4 60
4 120
5 29
5 30
5 39
5 40
5 51
5 54
5 61
5 62
5 99
5 100
5 85
5 105
5 9
5 110
6 7
6 8
6 12
6 56
7 8
7 36
7 107
8 42
8 71
8 79
8 73
8 95
8 45
8 104
8 84
8 108
8 13
8 50
8 100
8 127
8 128
9 10
9 11
9 110
10 11
10 94
11 18
11 19
11 20
11 21
11 22
11 23
11 38
11 53
11 27
11 55
11 56
11 57
11 69
11 70
11 35
11 86
11 108
11 124
12 13
12 14
12 24
12 25
12 45
12 46
12 56
12 78
12 91
12 26
12 81
12 92
12 110
12 88
12 111
12 103
12 118
12 29
12 97
12 22
12 113
13 14
13 50
14 59
14 60
15 16
15 17
15 41
15 42
15 20
15 52
15 89
15 90
15 92
15 93
15 101
15 102
15 95
15 103
15 72
15 114
15 112
15 115
16 17
16 36
16 83
17 47
18 19
18 65
19 36
19 102
20 21
20 52
22 23
22 113
23 36
23 117
24 25
25 32
25 109
26 27
26 28
26 81
27 28
27 55
28 50
28 51
28 41
28 58
28 63
28 64
28 65
28 66
28 78
28 79
28 37
28 40
28 75
28 88
28 98
28 109
28 47
28 67
28 52
28 99
28 62
28 126
29 30
29 97
30 72
31 32
31 33
32 33
32 37
32 38
32 48
32 49
32 67
32 68
32 69
32 82
32 96
32 97
32 104
32 106
32 34
32 63
32 57
32 116
32 109
32 80
32 119
32 124
32 125
32 44
32 128
33 76
34 35
34 36
34 63
35 36
35 86
36 46
36 77
36 83
36 102
36 107
36 117
36 53
36 122
37 38
37 40
38 53
39 40
41 42
41 58
43 44
44 128
45 46
45 104
46 77
47 67
48 49
49 60
49 71
50 51
51 54
52 99
53 122
56 57
57 116
58 60
58 123
59 60
60 71
60 73
60 74
60 75
60 76
60 80
60 81
60 61
60 70
60 84
60 85
60 86
60 87
60 90
60 98
60 120
60 123
61 62
61 70
62 126
63 64
65 66
67 68
69 70
69 82
71 79
72 114
73 74
73 95
74 129
75 76
75 88
78 79
78 91
80 81
80 119
84 85
84 108
85 105
86 87
88 111
89 90
90 98
92 93
92 110
95 103
96 97
98 109
99 100
100 127
101 102
103 118
104 106
106 121
108 124
112 113
112 115
124 125
